/*********************************************
 * OPL 12.6.0.0 Data
 * Author: sarkara1
 * Creation Date: Feb 7, 2017 at 12:37:59 PM
 *********************************************/
N = 5;
P = [2,3,2,4,4];
R = [1,2,3,4,5];
D = [1,3,3,5,6];
W = [2,8,10,12,15];